p wcnf 429 1853 71945
71945 -7 -8 0
71945 -7 -9 0
71945 -8 -9 0
71945 7 8 9 0
71945 -13 -14 0
71945 -13 -15 0
71945 -14 -15 0
71945 13 14 15 0
71945 -23 -24 0
71945 -23 -25 0
71945 -24 -25 0
71945 23 24 25 0
71945 -29 -30 0
71945 -29 -31 0
71945 -30 -31 0
71945 29 30 31 0
71945 -41 -42 0
71945 -41 -43 0
71945 -42 -43 0
71945 41 42 43 0
71945 -45 -46 0
71945 -45 -47 0
71945 -46 -47 0
71945 45 46 47 0
71945 -53 -54 0
71945 -53 -55 0
71945 -54 -55 0
71945 53 54 55 0
71945 -57 -58 0
71945 -57 -59 0
71945 -58 -59 0
71945 57 58 59 0
71945 -77 -78 0
71945 -77 -79 0
71945 -78 -79 0
71945 77 78 79 0
71945 -83 -84 0
71945 -83 -85 0
71945 -84 -85 0
71945 83 84 85 0
71945 -91 -92 0
71945 -91 -93 0
71945 -92 -93 0
71945 91 92 93 0
71945 -97 -98 0
71945 -97 -99 0
71945 -98 -99 0
71945 97 98 99 0
71945 -218 -219 0
71945 -218 -220 0
71945 -218 -221 0
71945 -219 -220 0
71945 -219 -221 0
71945 -220 -221 0
71945 218 219 220 221 0
71945 -222 -223 0
71945 -222 -224 0
71945 -222 -225 0
71945 -223 -224 0
71945 -223 -225 0
71945 -224 -225 0
71945 222 223 224 225 0
71945 -228 -229 0
71945 -228 -230 0
71945 -229 -230 0
71945 228 229 230 0
71945 -231 -232 0
71945 -231 -233 0
71945 -232 -233 0
71945 231 232 233 0
71945 -234 -235 0
71945 -234 -236 0
71945 -235 -236 0
71945 234 235 236 0
71945 -237 -238 0
71945 -237 -239 0
71945 -238 -239 0
71945 237 238 239 0
71945 -240 -241 0
71945 -240 -242 0
71945 -241 -242 0
71945 240 241 242 0
71945 -243 -244 0
71945 -243 -245 0
71945 -244 -245 0
71945 243 244 245 0
71945 -248 -249 0
71945 -248 -250 0
71945 -248 -251 0
71945 -249 -250 0
71945 -249 -251 0
71945 -250 -251 0
71945 248 249 250 251 0
71945 -253 -254 0
71945 -253 -255 0
71945 -253 -256 0
71945 -254 -255 0
71945 -254 -256 0
71945 -255 -256 0
71945 253 254 255 256 0
71945 -258 -259 0
71945 -258 -260 0
71945 -259 -260 0
71945 258 259 260 0
71945 -262 -263 0
71945 -262 -264 0
71945 -263 -264 0
71945 262 263 264 0
71945 -266 -267 0
71945 -266 -268 0
71945 -267 -268 0
71945 266 267 268 0
71945 -270 -271 0
71945 -270 -272 0
71945 -271 -272 0
71945 270 271 272 0
71945 -274 -275 0
71945 -274 -276 0
71945 -275 -276 0
71945 274 275 276 0
71945 -278 -279 0
71945 -278 -280 0
71945 -279 -280 0
71945 278 279 280 0
71945 -282 -283 0
71945 -282 -284 0
71945 -282 -285 0
71945 -283 -284 0
71945 -283 -285 0
71945 -284 -285 0
71945 282 283 284 285 0
71945 -287 -288 0
71945 -287 -289 0
71945 -287 -290 0
71945 -288 -289 0
71945 -288 -290 0
71945 -289 -290 0
71945 287 288 289 290 0
71945 -300 -301 0
71945 -300 -302 0
71945 -300 -303 0
71945 -300 -304 0
71945 -301 -302 0
71945 -301 -303 0
71945 -301 -304 0
71945 -302 -303 0
71945 -302 -304 0
71945 -303 -304 0
71945 300 301 302 303 304 0
71945 -305 -306 0
71945 -305 -307 0
71945 -305 -308 0
71945 -305 -309 0
71945 -306 -307 0
71945 -306 -308 0
71945 -306 -309 0
71945 -307 -308 0
71945 -307 -309 0
71945 -308 -309 0
71945 305 306 307 308 309 0
71945 -310 -311 0
71945 -310 -312 0
71945 -311 -312 0
71945 310 311 312 0
71945 -313 -314 0
71945 -313 -315 0
71945 -314 -315 0
71945 313 314 315 0
71945 -316 -317 0
71945 -316 -318 0
71945 -317 -318 0
71945 316 317 318 0
71945 -319 -320 0
71945 -319 -321 0
71945 -320 -321 0
71945 319 320 321 0
71945 -322 -323 0
71945 -322 -324 0
71945 -323 -324 0
71945 322 323 324 0
71945 -325 -326 0
71945 -325 -327 0
71945 -326 -327 0
71945 325 326 327 0
71945 -328 -329 0
71945 -328 -330 0
71945 -328 -331 0
71945 -328 -332 0
71945 -329 -330 0
71945 -329 -331 0
71945 -329 -332 0
71945 -330 -331 0
71945 -330 -332 0
71945 -331 -332 0
71945 328 329 330 331 332 0
71945 -333 -334 0
71945 -333 -335 0
71945 -333 -336 0
71945 -333 -337 0
71945 -334 -335 0
71945 -334 -336 0
71945 -334 -337 0
71945 -335 -336 0
71945 -335 -337 0
71945 -336 -337 0
71945 333 334 335 336 337 0
71945 -340 -341 0
71945 -340 -342 0
71945 -341 -342 0
71945 340 341 342 0
71945 -343 -344 0
71945 -343 -345 0
71945 -343 -346 0
71945 -343 -347 0
71945 -344 -345 0
71945 -344 -346 0
71945 -344 -347 0
71945 -345 -346 0
71945 -345 -347 0
71945 -346 -347 0
71945 343 344 345 346 347 0
71945 -348 -349 0
71945 -348 -350 0
71945 -348 -351 0
71945 -348 -352 0
71945 -349 -350 0
71945 -349 -351 0
71945 -349 -352 0
71945 -350 -351 0
71945 -350 -352 0
71945 -351 -352 0
71945 348 349 350 351 352 0
71945 -353 -354 0
71945 -353 -355 0
71945 -354 -355 0
71945 353 354 355 0
71945 -356 -357 0
71945 -356 -358 0
71945 -357 -358 0
71945 356 357 358 0
71945 -359 -360 0
71945 -359 -361 0
71945 -360 -361 0
71945 359 360 361 0
71945 -362 -363 0
71945 -362 -364 0
71945 -363 -364 0
71945 362 363 364 0
71945 -365 -366 0
71945 -365 -367 0
71945 -366 -367 0
71945 365 366 367 0
71945 -368 -369 0
71945 -368 -370 0
71945 -369 -370 0
71945 368 369 370 0
71945 -371 -372 0
71945 -371 -373 0
71945 -371 -374 0
71945 -371 -375 0
71945 -372 -373 0
71945 -372 -374 0
71945 -372 -375 0
71945 -373 -374 0
71945 -373 -375 0
71945 -374 -375 0
71945 371 372 373 374 375 0
71945 -376 -377 0
71945 -376 -378 0
71945 -376 -379 0
71945 -376 -380 0
71945 -377 -378 0
71945 -377 -379 0
71945 -377 -380 0
71945 -378 -379 0
71945 -378 -380 0
71945 -379 -380 0
71945 376 377 378 379 380 0
71945 -383 -384 0
71945 -383 -385 0
71945 -384 -385 0
71945 383 384 385 0
71945 -386 -387 0
71945 -386 -388 0
71945 -386 -389 0
71945 -387 -388 0
71945 -387 -389 0
71945 -388 -389 0
71945 386 387 388 389 0
71945 -390 -391 0
71945 -390 -392 0
71945 -390 -393 0
71945 -391 -392 0
71945 -391 -393 0
71945 -392 -393 0
71945 390 391 392 393 0
71945 -394 -395 0
71945 -394 -396 0
71945 -395 -396 0
71945 394 395 396 0
71945 -397 -398 0
71945 -397 -399 0
71945 -398 -399 0
71945 397 398 399 0
71945 -400 -401 0
71945 -400 -402 0
71945 -401 -402 0
71945 400 401 402 0
71945 -403 -404 0
71945 -403 -405 0
71945 -404 -405 0
71945 403 404 405 0
71945 -406 -407 0
71945 -406 -408 0
71945 -407 -408 0
71945 406 407 408 0
71945 -409 -410 0
71945 -409 -411 0
71945 -410 -411 0
71945 409 410 411 0
71945 -412 -413 0
71945 -412 -414 0
71945 -412 -415 0
71945 -413 -414 0
71945 -413 -415 0
71945 -414 -415 0
71945 412 413 414 415 0
71945 -416 -417 0
71945 -416 -418 0
71945 -416 -419 0
71945 -417 -418 0
71945 -417 -419 0
71945 -418 -419 0
71945 416 417 418 419 0
71945 -420 -421 0
71945 -420 -422 0
71945 -421 -422 0
71945 420 421 422 0
71945 -423 -424 0
71945 -423 -425 0
71945 -424 -425 0
71945 423 424 425 0
71945 -426 -427 0
71945 -426 -428 0
71945 -427 -428 0
71945 426 427 428 0
116 -2 1 0
71945 11 2 0
728 -3 2 0
71945 -13 3 0
67 4 -3 0
949 -4 3 0
71945 21 -5 0
71945 6 -5 0
71945 21 6 -5 0
71945 21 -6 -5 0
71945 -21 6 -5 0
71945 -21 -6 5 0
493 10 -6 0
493 -10 6 0
71945 -23 -9 0
71945 -24 -7 0
71945 -24 -9 0
71945 -25 -7 0
71945 10 -7 0
71945 10 -9 0
71945 -23 10 -7 0
71945 -23 10 -9 0
71945 -23 -10 -8 0
71945 -23 -10 -9 0
71945 -24 10 -7 0
71945 -24 10 -9 0
71945 -24 -10 -7 0
71945 -24 -10 -9 0
71945 -25 10 -7 0
71945 -25 10 -9 0
71945 -25 -10 -7 0
71945 -25 -10 -8 0
58 12 -10 0
58 -12 10 0
71945 27 -11 0
71945 12 -11 0
71945 27 12 -11 0
71945 27 -12 -11 0
71945 -27 12 -11 0
71945 -27 -12 11 0
364 16 -12 0
364 -16 12 0
508 18 -16 0
508 -18 16 0
71945 33 -17 0
71945 18 -17 0
71945 33 18 -17 0
71945 33 -18 -17 0
71945 -33 18 -17 0
71945 -33 -18 17 0
493 26 -22 0
493 -26 22 0
58 28 -26 0
58 -28 26 0
364 32 -28 0
364 -32 28 0
508 34 -32 0
508 -34 32 0
493 44 -38 0
493 -44 38 0
493 48 -40 0
493 -48 40 0
58 50 -44 0
58 -50 44 0
58 52 -48 0
58 -52 48 0
364 56 -50 0
364 -56 50 0
364 60 -52 0
364 -60 52 0
508 62 -56 0
508 -62 56 0
508 64 -60 0
508 -64 60 0
71945 -340 -65 0
71945 -342 65 0
71945 -340 66 -65 0
71945 -340 -66 -65 0
71945 -341 66 65 0
71945 -341 -66 -65 0
71945 -342 66 65 0
71945 -342 -66 65 0
71945 -383 -67 0
71945 -385 67 0
71945 -383 68 -67 0
71945 -383 -68 -67 0
71945 -384 68 67 0
71945 -384 -68 -67 0
71945 -385 68 67 0
71945 -385 -68 67 0
364 70 -69 0
364 -70 69 0
71945 87 70 0
508 71 -70 0
508 -71 70 0
171 73 -71 0
171 -73 71 0
548 75 -73 0
548 -75 73 0
493 80 -76 0
493 -80 76 0
58 86 -80 0
58 -86 80 0
364 88 -86 0
364 -88 86 0
508 94 -88 0
508 -94 88 0
171 96 -90 0
171 -96 90 0
171 100 -94 0
171 -100 94 0
548 102 -96 0
548 -102 96 0
548 104 -100 0
548 -104 100 0
71945 -426 -103 0
71945 -428 103 0
71945 -426 104 -103 0
71945 -426 -104 -103 0
71945 -427 104 103 0
71945 -427 -104 -103 0
71945 -428 104 103 0
71945 -428 -104 103 0
493 106 -105 0
493 -106 105 0
58 108 -106 0
58 -108 106 0
364 109 -108 0
364 -109 108 0
508 111 -109 0
508 -111 109 0
171 113 -110 0
171 -113 110 0
171 115 -111 0
171 -115 111 0
548 117 -113 0
548 -117 113 0
548 119 -115 0
548 -119 115 0
14 116 -118 0
4 -116 118 0
5 -426 -119 0
132 -428 119 0
71945 -426 -118 0
71945 -428 118 0
5 119 118 0
132 -119 -118 0
71945 -426 119 -118 0
71945 -426 -119 -118 0
71945 -427 119 118 0
71945 -427 -119 -118 0
71945 -428 119 118 0
71945 -428 -119 118 0
493 122 -120 0
493 -122 120 0
493 123 -121 0
493 -123 121 0
58 125 -122 0
58 -125 122 0
58 127 -123 0
58 -127 123 0
364 128 -125 0
364 -128 125 0
364 129 -127 0
364 -129 127 0
508 131 -128 0
508 -131 128 0
508 133 -129 0
508 -133 129 0
171 135 -131 0
171 -135 131 0
171 137 -133 0
171 -137 133 0
548 139 -135 0
548 -139 135 0
548 141 -137 0
548 -141 137 0
38 138 140 0
104 -138 -140 0
71945 -340 -138 0
71945 -342 138 0
71945 -340 139 -138 0
71945 -340 -139 -138 0
71945 -341 139 138 0
71945 -341 -139 -138 0
71945 -342 139 138 0
71945 -342 -139 138 0
71945 -383 -140 0
71945 -385 140 0
71945 -383 141 -140 0
71945 -383 -141 -140 0
71945 -384 141 140 0
71945 -384 -141 -140 0
71945 -385 141 140 0
71945 -385 -141 140 0
495 146 -143 0
491 -146 143 0
493 147 -145 0
493 -147 145 0
60 148 -146 0
56 -148 146 0
58 149 -147 0
58 -149 147 0
364 151 -148 0
364 -151 148 0
364 153 -149 0
364 -153 149 0
508 155 -151 0
508 -155 151 0
508 157 -153 0
508 -157 153 0
171 158 -155 0
171 -158 155 0
171 159 -157 0
171 -159 157 0
364 169 -165 0
364 -169 165 0
364 171 -167 0
364 -171 167 0
508 173 -169 0
508 -173 169 0
508 175 -171 0
508 -175 171 0
171 176 -173 0
171 -176 173 0
171 177 -175 0
171 -177 175 0
493 183 -179 0
493 -183 179 0
493 185 -181 0
493 -185 181 0
58 187 -183 0
58 -187 183 0
58 189 -185 0
58 -189 185 0
364 191 -187 0
364 -191 187 0
364 193 -189 0
364 -193 189 0
508 195 -191 0
508 -195 191 0
508 197 -193 0
508 -197 193 0
368 207 -203 0
360 -207 203 0
364 209 -205 0
364 -209 205 0
512 211 -207 0
504 -211 207 0
508 213 -209 0
508 -213 209 0
176 214 -211 0
166 -214 211 0
171 215 -213 0
171 -215 213 0
548 217 -215 0
548 -217 215 0
493 261 -252 0
493 -261 252 0
493 265 -257 0
493 -265 257 0
58 269 -261 0
58 -269 261 0
58 273 -265 0
58 -273 265 0
364 277 -269 0
364 -277 269 0
364 281 -273 0
364 -281 273 0
508 286 -277 0
508 -286 277 0
508 291 -281 0
508 -291 281 0
171 293 -286 0
171 -293 286 0
171 295 -291 0
171 -295 291 0
548 297 -293 0
548 -297 293 0
548 299 -295 0
548 -299 295 0
71945 -340 -296 0
71945 -342 296 0
71945 -340 297 -296 0
71945 -340 -297 -296 0
71945 -341 297 296 0
71945 -341 -297 -296 0
71945 -342 297 296 0
71945 -342 -297 296 0
71945 -383 -298 0
71945 -385 298 0
71945 -383 299 -298 0
71945 -383 -299 -298 0
71945 -384 299 298 0
71945 -384 -299 -298 0
71945 -385 299 298 0
71945 -385 -299 298 0
71945 17 4 0
71945 -386 -105 0
71945 -387 -105 0
36 -388 105 0
71945 -389 -105 0
71945 -390 105 0
71945 -391 105 0
36 -392 -105 0
71945 -393 105 0
71945 -394 -106 0
71 -395 106 0
71945 -396 -106 0
71945 -397 106 0
71 -398 -106 0
71945 -399 106 0
71916 124 -107 0
29 -124 107 0
71945 126 107 0
29 -126 -107 0
71945 -400 -108 0
71945 -402 -108 0
71945 -403 108 0
71945 -405 108 0
71945 -406 -109 0
71945 -407 -109 0
126 -408 109 0
71945 -409 109 0
71945 -410 109 0
126 -411 -109 0
71945 130 -110 0
71945 132 110 0
71945 -412 -111 0
47 -413 111 0
71945 -414 -111 0
71945 -415 -111 0
71945 -416 111 0
47 -417 -111 0
71945 -418 111 0
71945 -419 111 0
71945 -300 -120 0
71945 -301 -120 0
61 -302 120 0
71945 -303 -120 0
71945 -304 -120 0
71945 -305 120 0
71945 -306 120 0
61 -307 -120 0
71945 -308 120 0
71945 -309 120 0
71945 -343 -121 0
71945 -344 -121 0
61 -345 121 0
71945 -346 -121 0
71945 -347 -121 0
71945 -348 121 0
71945 -349 121 0
61 -350 -121 0
71945 -351 121 0
71945 -352 121 0
71945 -310 -122 0
71945 -311 -122 0
71945 -313 122 0
71945 -314 122 0
71945 -353 -123 0
71945 -354 -123 0
71945 -356 123 0
71945 -357 123 0
71945 -322 -128 0
71945 -324 -128 0
71945 -325 128 0
71945 -327 128 0
71945 -365 -129 0
71945 -367 -129 0
71945 -368 129 0
71945 -370 129 0
71945 226 -146 0
71945 227 146 0
71945 -258 -147 0
71945 -259 -147 0
71945 -262 147 0
71945 -263 147 0
71945 -228 -148 0
90 -229 148 0
71945 -230 -148 0
71945 -231 148 0
92 -232 -148 0
71945 -233 148 0
71945 -266 -149 0
71945 -268 -149 0
71945 -270 149 0
71945 -272 149 0
71945 246 -158 0
98 -246 158 0
71945 247 158 0
98 -247 -158 0
71945 292 -159 0
71945 294 159 0
71945 246 -176 0
71945 247 176 0
71945 292 -177 0
71945 294 177 0
71945 246 -214 0
71945 247 214 0
71945 292 -215 0
71945 294 215 0
71945 1 -7 0
9 16 -13 0
132 16 -15 0
71945 -29 -16 -14 0
71945 -29 -16 -15 0
71945 -30 -16 -13 0
71945 -30 -16 -15 0
71945 -31 -16 -13 0
71945 -31 -16 -14 0
71945 35 -20 -19 0
71945 -35 -20 19 0
71945 37 -22 -21 0
71945 -37 -22 21 0
71945 22 21 -39 0
71945 22 -21 39 0
71945 -41 -26 -24 0
71945 -41 -26 -25 0
71945 -42 -26 -23 0
71945 -42 -26 -25 0
71945 -43 -26 -23 0
71945 -43 -26 -24 0
71945 26 -23 -46 0
71945 26 -23 -47 0
71945 26 -24 -45 0
71945 26 -24 -47 0
71945 26 -25 -45 0
71945 26 -25 -46 0
71945 49 -28 -27 0
71945 -49 -28 27 0
71945 28 27 -51 0
71945 28 -27 51 0
71945 -53 -32 -30 0
71945 -53 -32 -31 0
71945 -54 -32 -29 0
71945 -54 -32 -31 0
71945 -55 -32 -29 0
71945 -55 -32 -30 0
71945 32 -29 -58 0
71945 32 -29 -59 0
71945 32 -30 -57 0
71945 32 -30 -59 0
71945 32 -31 -57 0
71945 32 -31 -58 0
71945 61 -34 -33 0
71945 -61 -34 33 0
71945 34 33 -63 0
71945 34 -33 63 0
71945 65 -36 -35 0
71945 -65 -36 35 0
71945 36 35 -67 0
71945 36 -35 67 0
71945 -300 -38 -37 0
71945 -301 -38 -37 0
71945 -302 -38 -37 0
71945 -303 -38 37 0
71945 -304 -38 -37 0
71945 38 37 -308 0
71945 38 -37 -305 0
71945 38 -37 -306 0
71945 38 -37 -307 0
71945 38 -37 -309 0
71945 -343 -40 -39 0
71945 -344 -40 -39 0
71945 -345 -40 -39 0
71945 -346 -40 39 0
71945 -347 -40 -39 0
71945 40 39 -351 0
71945 40 -39 -348 0
71945 40 -39 -349 0
71945 40 -39 -350 0
71945 40 -39 -352 0
71945 -310 -44 -42 0
71945 -310 -44 -43 0
71945 -311 -44 -41 0
71945 -311 -44 -43 0
71945 -312 -44 -41 0
71945 -312 -44 -42 0
71945 44 -41 -314 0
71945 44 -41 -315 0
71945 44 -42 -313 0
71945 44 -42 -315 0
71945 44 -43 -313 0
71945 44 -43 -314 0
71945 -353 -48 -46 0
71945 -353 -48 -47 0
71945 -354 -48 -45 0
71945 -354 -48 -47 0
71945 -355 -48 -45 0
71945 -355 -48 -46 0
71945 48 -45 -357 0
71945 48 -45 -358 0
71945 48 -46 -356 0
71945 48 -46 -358 0
71945 48 -47 -356 0
71945 48 -47 -357 0
71945 -316 -50 49 0
71945 -317 -50 -49 0
71945 -318 -50 -49 0
71945 50 49 -319 0
71945 50 -49 -320 0
71945 50 -49 -321 0
71945 -359 -52 51 0
71945 -360 -52 -51 0
71945 -361 -52 -51 0
71945 52 51 -362 0
71945 52 -51 -363 0
71945 52 -51 -364 0
71945 -322 -56 -54 0
71945 -322 -56 -55 0
71945 -323 -56 -53 0
71945 -323 -56 -55 0
71945 -324 -56 -53 0
71945 -324 -56 -54 0
71945 56 -53 -326 0
71945 56 -53 -327 0
71945 56 -54 -325 0
71945 56 -54 -327 0
71945 56 -55 -325 0
71945 56 -55 -326 0
71945 -365 -60 -58 0
71945 -365 -60 -59 0
71945 -366 -60 -57 0
71945 -366 -60 -59 0
71945 -367 -60 -57 0
71945 -367 -60 -58 0
71945 60 -57 -369 0
71945 60 -57 -370 0
71945 60 -58 -368 0
71945 60 -58 -370 0
71945 60 -59 -368 0
71945 60 -59 -369 0
71945 -328 -62 -61 0
71945 -329 -62 -61 0
71945 -330 -62 -61 0
71945 -331 -62 61 0
71945 -332 -62 -61 0
71945 62 61 -336 0
71945 62 -61 -333 0
71945 62 -61 -334 0
71945 62 -61 -335 0
71945 62 -61 -337 0
71945 -371 -64 -63 0
71945 -372 -64 -63 0
71945 -373 -64 -63 0
71945 -374 -64 63 0
71945 -375 -64 -63 0
71945 64 63 -379 0
71945 64 -63 -376 0
71945 64 -63 -377 0
71945 64 -63 -378 0
71945 64 -63 -380 0
71945 81 -69 0
71945 69 -83 0
71945 89 -71 0
71945 71 -91 0
71945 95 -73 -72 0
71945 -95 -73 72 0
71945 73 -97 0
71945 73 72 -97 0
71945 73 72 -99 0
71945 73 -72 -97 0
71945 73 -72 -98 0
71945 101 -75 -74 0
71945 -101 -75 74 0
71945 75 74 -103 0
71945 75 -74 103 0
71945 -394 -80 -78 0
71945 -394 -80 -79 0
71945 -395 -80 -77 0
71945 -395 -80 -79 0
71945 -396 -80 -77 0
71945 -396 -80 -78 0
71945 80 -77 -398 0
71945 80 -77 -399 0
71945 80 -78 -397 0
71945 80 -78 -399 0
71945 80 -79 -397 0
71945 80 -79 -398 0
71945 124 -82 -81 0
71945 -124 -82 81 0
71945 82 81 -126 0
71945 82 -81 126 0
71945 -400 -86 -84 0
71945 -400 -86 -85 0
71945 -401 -86 -83 0
71945 -401 -86 -85 0
71945 -402 -86 -83 0
71945 -402 -86 -84 0
71945 86 -83 -404 0
71945 86 -83 -405 0
71945 86 -84 -403 0
71945 86 -84 -405 0
71945 86 -85 -403 0
71945 86 -85 -404 0
71945 -406 -88 -87 0
71945 -407 -88 87 0
71945 -408 -88 -87 0
71945 88 87 -410 0
71945 88 -87 -409 0
71945 88 -87 -411 0
71945 130 -90 -89 0
71945 -130 -90 89 0
71945 90 89 -132 0
71945 90 -89 132 0
71945 -412 -94 -92 0
71945 -412 -94 -93 0
71945 -413 -94 -92 0
71945 -413 -94 -93 0
71945 -414 -94 -91 0
71945 -414 -94 -93 0
71945 -415 -94 -91 0
71945 -415 -94 -92 0
71945 94 -91 -418 0
71945 94 -91 -419 0
71945 94 -92 -416 0
71945 94 -92 -417 0
71945 94 -92 -419 0
71945 94 -93 -416 0
71945 94 -93 -417 0
71945 94 -93 -418 0
71945 134 -96 -95 0
71945 -134 -96 95 0
71945 96 95 -136 0
71945 96 -95 136 0
71945 -420 -100 -98 0
71945 -420 -100 -99 0
71945 -421 -100 -97 0
71945 -421 -100 -99 0
71945 -422 -100 -97 0
71945 -422 -100 -98 0
71945 100 -97 -424 0
71945 100 -97 -425 0
71945 100 -98 -423 0
71945 100 -98 -425 0
71945 100 -99 -423 0
71945 100 -99 -424 0
71945 138 -102 -101 0
71945 -138 -102 101 0
71945 102 101 -140 0
71945 102 -101 140 0
71945 134 -113 -112 0
71945 -134 -113 112 0
71945 113 112 -136 0
71945 113 -112 136 0
71945 -420 -115 0
71945 -420 -115 114 0
71945 -420 -115 -114 0
71945 -421 -115 -114 0
71945 -422 -115 114 0
71945 115 -423 0
71945 115 114 -423 0
71945 115 114 -425 0
71945 115 -114 -423 0
71945 115 -114 -424 0
71945 138 -117 -116 0
71945 -138 -117 116 0
71945 117 116 -140 0
71945 117 -116 140 0
71945 -316 -125 0
92 -317 -124 0
121 -318 124 0
71945 -316 -125 124 0
71945 -316 -125 -124 0
92 -317 125 124 0
71945 -317 -125 -124 0
121 -318 125 -124 0
71945 -318 -125 124 0
71945 125 -319 0
121 124 -321 0
92 -124 -320 0
71945 125 124 -319 0
71945 125 124 -321 0
71945 125 -124 -319 0
71945 125 -124 -320 0
92 -125 124 -320 0
121 -125 -124 -321 0
71945 -359 -127 0
92 -360 -126 0
121 -361 126 0
71945 -359 -127 126 0
71945 -359 -127 -126 0
92 -360 127 126 0
71945 -360 -127 -126 0
121 -361 127 -126 0
71945 -361 -127 126 0
71945 127 -362 0
121 126 -364 0
92 -126 -363 0
71945 127 126 -362 0
71945 127 126 -364 0
71945 127 -126 -362 0
71945 127 -126 -363 0
92 -127 126 -363 0
121 -127 -126 -364 0
71945 -328 -131 0
71945 -329 -131 0
71945 -331 -131 0
71945 -328 -131 130 0
71945 -328 -131 -130 0
71945 -329 -131 130 0
71945 -329 -131 -130 0
71945 -330 -131 -130 0
71945 -331 -131 130 0
71945 -331 -131 -130 0
71945 -332 -131 130 0
71945 131 -333 0
71945 131 -334 0
71945 131 -336 0
71945 131 130 -333 0
71945 131 130 -334 0
71945 131 130 -336 0
71945 131 130 -337 0
71945 131 -130 -333 0
71945 131 -130 -334 0
71945 131 -130 -335 0
71945 131 -130 -336 0
71945 -371 -133 0
71945 -372 -133 0
71945 -374 -133 0
71945 -371 -133 132 0
71945 -371 -133 -132 0
71945 -372 -133 132 0
71945 -372 -133 -132 0
71945 -373 -133 -132 0
71945 -374 -133 132 0
71945 -374 -133 -132 0
71945 -375 -133 132 0
71945 133 -376 0
71945 133 -377 0
71945 133 -379 0
71945 133 132 -376 0
71945 133 132 -377 0
71945 133 132 -379 0
71945 133 132 -380 0
71945 133 -132 -376 0
71945 133 -132 -377 0
71945 133 -132 -378 0
71945 133 -132 -379 0
71945 338 -135 -134 0
71945 -338 -135 134 0
71945 135 134 -339 0
71945 135 -134 339 0
71945 381 -137 -136 0
71945 -381 -137 136 0
71945 137 136 -382 0
71945 137 -136 382 0
2 -218 143 0
2 -219 143 0
71945 -220 -143 0
71945 -221 -143 0
71945 -218 -143 -142 0
71945 -219 -143 142 0
71945 -220 -143 142 0
71945 -220 -143 -142 0
71945 -221 -143 142 0
71945 -221 -143 -142 0
71945 143 -224 0
71945 143 -225 0
71945 143 142 -223 0
71945 143 142 -224 0
71945 143 142 -225 0
71945 143 -142 -222 0
71945 143 -142 -224 0
71945 143 -142 -225 0
71945 -250 -145 0
71945 -251 -145 0
71945 -248 -145 -144 0
71945 -249 -145 144 0
71945 -250 -145 144 0
71945 -250 -145 -144 0
71945 -251 -145 144 0
71945 -251 -145 -144 0
71945 145 -255 0
71945 145 -256 0
71945 145 144 -254 0
71945 145 144 -255 0
71945 145 144 -256 0
71945 145 -144 -253 0
71945 145 -144 -255 0
71945 145 -144 -256 0
71945 -234 -151 0
71945 -234 -151 150 0
71945 -234 -151 -150 0
71945 -235 -151 -150 0
71945 -236 -151 150 0
71945 151 -237 0
71945 151 150 -237 0
71945 151 150 -239 0
71945 151 -150 -237 0
71945 151 -150 -238 0
71945 -274 -153 0
71945 -274 -153 152 0
71945 -274 -153 -152 0
71945 -275 -153 -152 0
71945 -276 -153 152 0
71945 153 -278 0
71945 153 152 -278 0
71945 153 152 -280 0
71945 153 -152 -278 0
71945 153 -152 -279 0
71945 -242 -155 0
71945 -240 -155 -154 0
71945 -241 -155 154 0
71945 -242 -155 154 0
71945 -242 -155 -154 0
71945 155 -245 0
71945 155 154 -244 0
71945 155 154 -245 0
71945 155 -154 -243 0
71945 155 -154 -245 0
71945 -282 -157 0
71945 -285 -157 0
71945 -282 -157 156 0
71945 -282 -157 -156 0
71945 -283 -157 -156 0
71945 -284 -157 156 0
71945 -285 -157 156 0
71945 -285 -157 -156 0
71945 157 -287 0
71945 157 -290 0
71945 157 156 -287 0
71945 157 156 -289 0
71945 157 156 -290 0
71945 157 -156 -287 0
71945 157 -156 -288 0
71945 157 -156 -290 0
71945 -220 -161 0
71945 -221 -161 0
71945 -218 -161 -160 0
71945 -219 -161 160 0
71945 -220 -161 160 0
71945 -220 -161 -160 0
71945 -221 -161 160 0
71945 -221 -161 -160 0
71945 161 -224 0
71945 161 -225 0
71945 161 160 -223 0
71945 161 160 -224 0
71945 161 160 -225 0
71945 161 -160 -222 0
71945 161 -160 -224 0
71945 161 -160 -225 0
71945 -250 -163 0
71945 -251 -163 0
71945 -248 -163 -162 0
71945 -249 -163 162 0
71945 -250 -163 162 0
71945 -250 -163 -162 0
71945 -251 -163 162 0
71945 -251 -163 -162 0
71945 163 -255 0
71945 163 -256 0
71945 163 162 -254 0
71945 163 162 -255 0
71945 163 162 -256 0
71945 163 -162 -253 0
71945 163 -162 -255 0
71945 163 -162 -256 0
71945 -228 -165 0
71945 -228 -165 164 0
71945 -228 -165 -164 0
71945 -229 -165 -164 0
71945 -230 -165 164 0
71945 165 -231 0
71945 165 164 -231 0
71945 165 164 -233 0
71945 165 -164 -231 0
71945 165 -164 -232 0
71945 -266 -167 0
71945 -266 -167 166 0
71945 -266 -167 -166 0
71945 -267 -167 -166 0
71945 -268 -167 166 0
71945 167 -270 0
71945 167 166 -270 0
71945 167 166 -272 0
71945 167 -166 -270 0
71945 167 -166 -271 0
71945 -234 -169 0
71945 -234 -169 168 0
71945 -234 -169 -168 0
71945 -235 -169 -168 0
71945 -236 -169 168 0
71945 169 -237 0
71945 169 168 -237 0
71945 169 168 -239 0
71945 169 -168 -237 0
71945 169 -168 -238 0
71945 -274 -171 0
71945 -274 -171 170 0
71945 -274 -171 -170 0
71945 -275 -171 -170 0
71945 -276 -171 170 0
71945 171 -278 0
71945 171 170 -278 0
71945 171 170 -280 0
71945 171 -170 -278 0
71945 171 -170 -279 0
71945 -241 -173 0
33 -240 -172 0
33 -242 172 0
48 173 -172 0
33 -240 173 172 0
71945 -240 -173 -172 0
71945 -241 -173 172 0
71945 -241 -173 -172 0
33 -242 173 -172 0
71945 -242 -173 172 0
71945 173 -244 0
81 172 -245 0
33 -172 -243 0
71945 173 172 -244 0
71945 173 172 -245 0
71945 173 -172 -243 0
71945 173 -172 -244 0
33 -173 172 -243 0
81 -173 -172 -245 0
71945 -282 -175 0
71945 -284 -175 0
71945 -282 -175 174 0
71945 -282 -175 -174 0
71945 -283 -175 -174 0
71945 -284 -175 174 0
71945 -284 -175 -174 0
71945 -285 -175 174 0
71945 175 -287 0
71945 175 -289 0
71945 175 174 -287 0
71945 175 174 -289 0
71945 175 174 -290 0
71945 175 -174 -287 0
71945 175 -174 -288 0
71945 175 -174 -289 0
71945 -218 -179 0
71945 -219 -179 0
111 -220 -178 0
130 -221 178 0
71945 -218 -179 178 0
71945 -218 -179 -178 0
71945 -219 -179 178 0
71945 -219 -179 -178 0
111 -220 179 178 0
71945 -220 -179 -178 0
130 -221 179 -178 0
71945 -221 -179 178 0
71945 179 -222 0
71945 179 -223 0
130 178 -225 0
111 -178 -224 0
71945 179 178 -222 0
71945 179 178 -223 0
71945 179 178 -225 0
71945 179 -178 -222 0
71945 179 -178 -223 0
71945 179 -178 -224 0
111 -179 178 -224 0
130 -179 -178 -225 0
71945 -248 -181 0
71945 -249 -181 0
71945 -248 -181 180 0
71945 -248 -181 -180 0
71945 -249 -181 180 0
71945 -249 -181 -180 0
71945 -250 -181 -180 0
71945 -251 -181 180 0
71945 181 -253 0
71945 181 -254 0
71945 181 180 -253 0
71945 181 180 -254 0
71945 181 180 -256 0
71945 181 -180 -253 0
71945 181 -180 -254 0
71945 181 -180 -255 0
71945 226 -183 -182 0
71945 -226 -183 182 0
71945 183 182 -227 0
71945 183 -182 227 0
71945 -258 -185 0
71945 -258 -185 184 0
71945 -258 -185 -184 0
71945 -259 -185 -184 0
71945 -260 -185 184 0
71945 185 -262 0
71945 185 184 -262 0
71945 185 184 -264 0
71945 185 -184 -262 0
71945 185 -184 -263 0
71945 -228 -187 0
71945 -228 -187 186 0
71945 -228 -187 -186 0
71945 -229 -187 -186 0
71945 -230 -187 186 0
71945 187 -231 0
71945 187 186 -231 0
71945 187 186 -233 0
71945 187 -186 -231 0
71945 187 -186 -232 0
71945 -266 -189 0
71945 -266 -189 188 0
71945 -266 -189 -188 0
71945 -267 -189 -188 0
71945 -268 -189 188 0
71945 189 -270 0
71945 189 188 -270 0
71945 189 188 -272 0
71945 189 -188 -270 0
71945 189 -188 -271 0
71945 -234 -191 0
71945 -234 -191 190 0
71945 -234 -191 -190 0
71945 -235 -191 -190 0
71945 -236 -191 190 0
71945 191 -237 0
71945 191 190 -237 0
71945 191 190 -239 0
71945 191 -190 -237 0
71945 191 -190 -238 0
71945 -274 -193 0
71945 -274 -193 192 0
71945 -274 -193 -192 0
71945 -275 -193 -192 0
71945 -276 -193 192 0
71945 193 -278 0
71945 193 192 -278 0
71945 193 192 -280 0
71945 193 -192 -278 0
71945 193 -192 -279 0
71945 -241 -195 0
71945 -240 -195 -194 0
71945 -241 -195 194 0
71945 -241 -195 -194 0
71945 -242 -195 194 0
71945 195 -244 0
71945 195 194 -244 0
71945 195 194 -245 0
71945 195 -194 -243 0
71945 195 -194 -244 0
71945 -282 -197 0
71945 -284 -197 0
71945 -282 -197 196 0
71945 -282 -197 -196 0
71945 -283 -197 -196 0
71945 -284 -197 196 0
71945 -284 -197 -196 0
71945 -285 -197 196 0
71945 197 -287 0
71945 197 -289 0
71945 197 196 -287 0
71945 197 196 -289 0
71945 197 196 -290 0
71945 197 -196 -287 0
71945 197 -196 -288 0
71945 197 -196 -289 0
71945 -218 -199 0
71945 -219 -199 0
2 -220 199 0
2 -221 199 0
71945 -218 -199 198 0
71945 -218 -199 -198 0
71945 -219 -199 198 0
71945 -219 -199 -198 0
71945 -220 -199 -198 0
71945 -221 -199 198 0
71945 199 -222 0
71945 199 -223 0
71945 199 198 -222 0
71945 199 198 -223 0
71945 199 198 -225 0
71945 199 -198 -222 0
71945 199 -198 -223 0
71945 199 -198 -224 0
71945 -248 -201 0
71945 -249 -201 0
71945 -248 -201 200 0
71945 -248 -201 -200 0
71945 -249 -201 200 0
71945 -249 -201 -200 0
71945 -250 -201 -200 0
71945 -251 -201 200 0
71945 201 -253 0
71945 201 -254 0
71945 201 200 -253 0
71945 201 200 -254 0
71945 201 200 -256 0
71945 201 -200 -253 0
71945 201 -200 -254 0
71945 201 -200 -255 0
71945 -228 -203 0
2 -229 203 0
2 -230 203 0
71945 -228 -203 202 0
71945 -228 -203 -202 0
71945 -229 -203 -202 0
71945 -230 -203 202 0
71945 203 -231 0
71945 203 202 -231 0
71945 203 202 -233 0
71945 203 -202 -231 0
71945 203 -202 -232 0
71945 -266 -205 0
71945 -266 -205 204 0
71945 -266 -205 -204 0
71945 -267 -205 -204 0
71945 -268 -205 204 0
71945 205 -270 0
71945 205 204 -270 0
71945 205 204 -272 0
71945 205 -204 -270 0
71945 205 -204 -271 0
71945 -234 -207 0
71945 -234 -207 206 0
71945 -234 -207 -206 0
71945 -235 -207 -206 0
71945 -236 -207 206 0
71945 207 -237 0
71945 207 206 -237 0
71945 207 206 -239 0
71945 207 -206 -237 0
71945 207 -206 -238 0
71945 -274 -209 0
71945 -274 -209 208 0
71945 -274 -209 -208 0
71945 -275 -209 -208 0
71945 -276 -209 208 0
71945 209 -278 0
71945 209 208 -278 0
71945 209 208 -280 0
71945 209 -208 -278 0
71945 209 -208 -279 0
71945 -241 -211 0
48 -242 210 0
1 211 210 0
47 -211 -210 0
71945 -240 -211 -210 0
71945 -241 -211 210 0
71945 -241 -211 -210 0
48 -242 211 -210 0
71945 -242 -211 210 0
71945 211 -244 0
71945 211 210 -244 0
71945 211 210 -245 0
71945 211 -210 -243 0
71945 211 -210 -244 0
71945 -282 -213 0
71945 -284 -213 0
71945 -282 -213 212 0
71945 -282 -213 -212 0
71945 -283 -213 -212 0
71945 -284 -213 212 0
71945 -284 -213 -212 0
71945 -285 -213 212 0
71945 213 -287 0
71945 213 -289 0
71945 213 212 -287 0
71945 213 212 -289 0
71945 213 212 -290 0
71945 213 -212 -287 0
71945 213 -212 -288 0
71945 213 -212 -289 0
71945 296 -217 -216 0
71945 -296 -217 216 0
71945 217 216 -298 0
71945 217 -216 298 0
71945 -300 -252 0
71945 -300 -252 -248 0
71945 -300 -252 -249 0
71945 -300 -252 -250 0
71945 -300 -252 -251 0
71945 -301 -252 -249 0
71945 -301 -252 -250 0
71945 -301 -252 -251 0
71945 -302 -252 -248 0
71945 -302 -252 -250 0
71945 -302 -252 -251 0
71945 -303 -252 -248 0
71945 -303 -252 -249 0
71945 -303 -252 -251 0
71945 -304 -252 -248 0
71945 -304 -252 -249 0
71945 -304 -252 -250 0
71945 252 -305 0
71945 252 -248 -305 0
71945 252 -248 -307 0
71945 252 -248 -308 0
71945 252 -248 -309 0
71945 252 -249 -305 0
71945 252 -249 -306 0
71945 252 -249 -308 0
71945 252 -249 -309 0
71945 252 -250 -305 0
71945 252 -250 -306 0
71945 252 -250 -307 0
71945 252 -250 -309 0
71945 252 -251 -305 0
71945 252 -251 -306 0
71945 252 -251 -307 0
71945 252 -251 -308 0
71945 -343 -257 0
71945 -343 -257 -253 0
71945 -343 -257 -254 0
71945 -343 -257 -255 0
71945 -343 -257 -256 0
71945 -344 -257 -254 0
71945 -344 -257 -255 0
71945 -344 -257 -256 0
71945 -345 -257 -253 0
71945 -345 -257 -255 0
71945 -345 -257 -256 0
71945 -346 -257 -253 0
71945 -346 -257 -254 0
71945 -346 -257 -256 0
71945 -347 -257 -253 0
71945 -347 -257 -254 0
71945 -347 -257 -255 0
71945 257 -348 0
71945 257 -253 -348 0
71945 257 -253 -350 0
71945 257 -253 -351 0
71945 257 -253 -352 0
71945 257 -254 -348 0
71945 257 -254 -349 0
71945 257 -254 -351 0
71945 257 -254 -352 0
71945 257 -255 -348 0
71945 257 -255 -349 0
71945 257 -255 -350 0
71945 257 -255 -352 0
71945 257 -256 -348 0
71945 257 -256 -349 0
71945 257 -256 -350 0
71945 257 -256 -351 0
71945 -310 -261 -259 0
71945 -310 -261 -260 0
71945 -311 -261 -258 0
71945 -311 -261 -260 0
71945 -312 -261 -258 0
71945 -312 -261 -259 0
71945 261 -258 -314 0
71945 261 -258 -315 0
71945 261 -259 -313 0
71945 261 -259 -315 0
71945 261 -260 -313 0
71945 261 -260 -314 0
71945 -353 -265 -263 0
71945 -353 -265 -264 0
71945 -354 -265 -262 0
71945 -354 -265 -264 0
71945 -355 -265 -262 0
71945 -355 -265 -263 0
71945 265 -262 -357 0
71945 265 -262 -358 0
71945 265 -263 -356 0
71945 265 -263 -358 0
71945 265 -264 -356 0
71945 265 -264 -357 0
71945 -316 -269 -267 0
71945 -316 -269 -268 0
71945 -317 -269 -266 0
71945 -317 -269 -268 0
71945 -318 -269 -266 0
71945 -318 -269 -267 0
71945 269 -266 -320 0
71945 269 -266 -321 0
71945 269 -267 -319 0
71945 269 -267 -321 0
71945 269 -268 -319 0
71945 269 -268 -320 0
71945 -359 -273 -271 0
71945 -359 -273 -272 0
71945 -360 -273 -270 0
71945 -360 -273 -272 0
71945 -361 -273 -270 0
71945 -361 -273 -271 0
71945 273 -270 -363 0
71945 273 -270 -364 0
71945 273 -271 -362 0
71945 273 -271 -364 0
71945 273 -272 -362 0
71945 273 -272 -363 0
71945 -322 -277 -275 0
71945 -322 -277 -276 0
71945 -323 -277 -274 0
71945 -323 -277 -276 0
71945 -324 -277 -274 0
71945 -324 -277 -275 0
71945 277 -274 -326 0
71945 277 -274 -327 0
71945 277 -275 -325 0
71945 277 -275 -327 0
71945 277 -276 -325 0
71945 277 -276 -326 0
71945 -365 -281 -279 0
71945 -365 -281 -280 0
71945 -366 -281 -278 0
71945 -366 -281 -280 0
71945 -367 -281 -278 0
71945 -367 -281 -279 0
71945 281 -278 -369 0
71945 281 -278 -370 0
71945 281 -279 -368 0
71945 281 -279 -370 0
71945 281 -280 -368 0
71945 281 -280 -369 0
71945 -328 -286 -283 0
71945 -328 -286 -284 0
71945 -328 -286 -285 0
71945 -329 -286 -282 0
71945 -329 -286 -284 0
71945 -329 -286 -285 0
71945 -330 -286 -282 0
71945 -330 -286 -283 0
71945 -330 -286 -285 0
71945 -331 -286 -283 0
71945 -331 -286 -284 0
71945 -331 -286 -285 0
71945 -332 -286 -282 0
71945 -332 -286 -283 0
71945 -332 -286 -284 0
71945 286 -282 -334 0
71945 286 -282 -335 0
71945 286 -282 -337 0
71945 286 -283 -333 0
71945 286 -283 -335 0
71945 286 -283 -336 0
71945 286 -283 -337 0
71945 286 -284 -333 0
71945 286 -284 -334 0
71945 286 -284 -336 0
71945 286 -284 -337 0
71945 286 -285 -333 0
71945 286 -285 -334 0
71945 286 -285 -335 0
71945 286 -285 -336 0
71945 -371 -291 -288 0
71945 -371 -291 -289 0
71945 -371 -291 -290 0
71945 -372 -291 -287 0
71945 -372 -291 -289 0
71945 -372 -291 -290 0
71945 -373 -291 -287 0
71945 -373 -291 -288 0
71945 -373 -291 -290 0
71945 -374 -291 -288 0
71945 -374 -291 -289 0
71945 -374 -291 -290 0
71945 -375 -291 -287 0
71945 -375 -291 -288 0
71945 -375 -291 -289 0
71945 291 -287 -377 0
71945 291 -287 -378 0
71945 291 -287 -380 0
71945 291 -288 -376 0
71945 291 -288 -378 0
71945 291 -288 -379 0
71945 291 -288 -380 0
71945 291 -289 -376 0
71945 291 -289 -377 0
71945 291 -289 -379 0
71945 291 -289 -380 0
71945 291 -290 -376 0
71945 291 -290 -377 0
71945 291 -290 -378 0
71945 291 -290 -379 0
71945 338 -293 292 0
71945 -338 -293 -292 0
71945 293 292 339 0
71945 293 -292 -339 0
71945 381 -295 294 0
71945 -381 -295 -294 0
71945 295 294 382 0
71945 295 -294 -382 0
71945 -386 -76 0
113 -387 76 0
71945 -388 -76 0
113 -389 76 0
71945 -386 -76 429 0
71945 -386 -76 -429 0
71945 -387 -76 -429 0
71945 -388 -76 429 0
71945 -388 -76 -429 0
71945 -389 -76 429 0
71945 76 -390 0
71945 76 -392 0
113 -76 -391 0
113 -76 -393 0
71945 76 429 -390 0
71945 76 429 -392 0
71945 76 429 -393 0
71945 76 -429 -390 0
71945 76 -429 -391 0
71945 76 -429 -392 0
9 -216 -214 0
58 205 -201 0
58 -205 201 0
60 203 -199 0
56 -203 199 0
58 167 -163 0
58 -167 163 0
58 165 -161 0
58 -165 161 0
364 110 -107 0
364 -110 107 0
364 90 -82 0
364 -90 82 0
116 69 -77 0
171 68 -64 0
171 -68 64 0
171 66 -62 0
171 -66 62 0
171 36 -34 0
171 -36 34 0
171 20 -18 0
171 -20 18 0
493 5 1 0
70 4 19 0
58 -1 0
306 -2 0
77 -3 0
58 -69 0
10 -74 0
435 -77 0
10 -116 0
19 -178 0
1 -210 0
5 -216 0
59 -219 0
59 -223 0
71 226 0
71 227 0
119 -230 0
121 -233 0
9 -234 0
132 -236 0
9 -237 0
132 -239 0
1 -301 0
113 -303 0
132 -304 0
1 -306 0
113 -308 0
132 -309 0
237 -310 0
71 -311 0
237 -313 0
71 -314 0
9 -322 0
132 -324 0
9 -325 0
132 -327 0
164 -328 0
33 -329 0
441 -331 0
81 -332 0
164 -333 0
33 -334 0
441 -336 0
81 -337 0
93 338 0
93 339 0
5 -340 0
132 -342 0
1 -344 0
113 -346 0
132 -347 0
1 -349 0
113 -351 0
132 -352 0
237 -353 0
71 -354 0
237 -356 0
71 -357 0
9 -365 0
132 -367 0
9 -368 0
132 -370 0
164 -371 0
33 -372 0
441 -374 0
81 -375 0
164 -376 0
33 -377 0
441 -379 0
81 -380 0
93 381 0
93 382 0
5 -383 0
132 -385 0
53 -389 0
53 -393 0
237 -394 0
237 -397 0
92 -400 0
121 -402 0
92 -403 0
121 -405 0
11 -406 0
11 -409 0
313 -414 0
96 -415 0
313 -418 0
96 -419 0
294 -420 0
93 -421 0
294 -423 0
93 -424 0
